10J3M/DAT/10J3MNTL-1.dat
10 3
27.9975 27.9975
33.3319 33.3319
23.2943 23.2943
30.3407 30.3407
23.1818 23.1818
24.8545 24.8545
24.6671 24.6671
29.5108 29.5108
23.9467 23.9467
27.6612 27.6612
67.1966