10J3M/SOL/10J3MNTL-1.sol
solution status: optimal solution found
objective value:                              67.1966
x#1#2                               0.409132958299848 	(obj:0)
x#2#3                                0.22036247558645 	(obj:0)
x#3#1                                               1 	(obj:0)
x#4#3                                               1 	(obj:0)
x#5#1                                               1 	(obj:0)
x#6#2                                               1 	(obj:0)
x#8#3                                               1 	(obj:0)
x#9#1                               0.865275800005846 	(obj:0)
x#9#2                               0.134724199994154 	(obj:0)
x#10#2                                              1 	(obj:0)
z                                             67.1966 	(obj:1)
